20	5
0	3	2	1	3
1	2	16	17
2	2	4	19
3	2	6	16
4	1	13
5	3	18	11	9
6	1	5
7	1	9
8	1	12
9	2	10	20
10	1	14
11	0
12	3	15	17	14
13	0
14	1	21
15	1	21
16	1	21
17	1	21
18	1	21
19	1	21
20	1	21
21	0
0	0	0	0	0	0	0
1	10	1	4	3	3	3
2	4	3	1	3	4	2
3	6	2	5	1	4	3
4	1	5	3	3	2	1
5	1	2	3	3	3	1
6	10	2	1	4	1	4
7	6	4	5	5	4	4
8	2	3	2	2	2	4
9	4	2	5	4	4	3
10	6	2	5	4	5	2
11	3	3	5	2	4	1
12	8	4	1	4	1	4
13	2	4	2	1	3	5
14	8	1	5	5	2	4
15	7	5	1	1	2	1
16	4	3	2	1	1	3
17	2	5	4	2	1	1
18	1	3	4	1	1	1
19	4	2	4	5	3	2
20	8	4	1	1	2	4
21	0	0	0	0	0	0
10	12	12	10	12
